NAME : rnd8_50.tsp.tsp.opt.tour
TYPE : TOUR
DIMENSION : 50
TOUR_SECTION
1
10
34
24
29
8
5
27
30
47
36
45
31
22
25
4
13
35
43
11
15
40
23
39
17
37
28
14
6
12
16
50
18
32
46
38
9
21
49
26
33
7
42
2
44
20
3
48
41
19
-1